proyfinal/src/viki/013/andrea/andrea-localstore/experimentInOfficeAgust.take6/worker_1/6b31b008-2fc5-4905-b94c-fec4f77d23a6.als.cnf.out
Reading from standard input... Use '--help' for help.
============================[ Problem Statistics ]=============================
|                                                                             |
|  Number of variables:         87638                                         |
|  Number of clauses:          161767                                         |
|  Parse time:                   0.03 s                                       |
|                                                                             |
============================[ Search Statistics ]==============================
| Conflicts |          ORIGINAL         |          LEARNT          | Progress |
|           |    Vars  Clauses Literals |    Limit  Clauses Lit/Cl |          |
===============================================================================
|       100 |   65233   115532   288250 |    42361      100     69 | 25.565 % |
|       250 |   65233   115532   288250 |    46597      250     52 | 25.565 % |
|       475 |   65233   115532   288250 |    51257      475     53 | 25.565 % |
|       812 |   65233   115532   288250 |    56383      812     61 | 25.565 % |
|      1318 |   65233   115532   288250 |    62021     1318    125 | 25.565 % |
|      2077 |   65233   115532   288250 |    68223     2077    122 | 25.565 % |
|      3216 |   65232   115488   288160 |    75046     3213    111 | 25.567 % |
|      4924 |   57878    92498   231516 |    82551     4832    104 | 33.958 % |
|      7486 |   57712    91892   230082 |    90806     7384    104 | 34.147 % |
|     11330 |   57605    91478   229113 |    99886    11221    113 | 34.269 % |
|     17096 |   57330    90440   226635 |   109875    16958    112 | 34.583 % |
===============================================================================
restarts              : 63
conflicts             : 18467          (6491 /sec)
decisions             : 91037          (0.00 % random) (32000 /sec)
propagations          : 28813690       (10128244 /sec)
conflict literals     : 2024749        (31.36 % deleted)
Memory used           : 46.80 MB
CPU time              : 2.84489 s

INDETERMINATE
